50
16609

280 734
743 270
444 975
611 386
415 628
250 458
389 330
205 32
172 371
321 349
74 1000
238 591
746 726
399 793
971 37
624 643
762 216
90 414
31 115
593 327
454 591
874 834
837 74
742 377
754 91
969 672
30 495
656 793
212 82
604 286
634 11
180 24
599 524
656 291
821 291
858 774
325 344
415 14
744 104
335 745
187 233
419 200
845 485
982 143
788 321
324 740
979 457
597 818
298 545
625 532
